array [1..16] of int: X_INTRODUCED_42_ = [30,30,30,30,30,1,1,1,1,1,1,1,1,1,1,-1];
array [1..5] of int: X_INTRODUCED_43_ = [20,24,11,25,30];
array [1..5] of int: X_INTRODUCED_45_ = [28,27,82,83,74];
array [1..5] of int: X_INTRODUCED_47_ = [74,97,71,96,70];
array [1..5] of int: X_INTRODUCED_49_ = [2,55,73,69,61];
array [1..5] of int: X_INTRODUCED_51_ = [46,96,59,83,4];
array [1..5] of int: X_INTRODUCED_53_ = [42,22,29,67,59];
array [1..5] of int: X_INTRODUCED_55_ = [1,5,73,59,56];
array [1..5] of int: X_INTRODUCED_57_ = [10,73,13,43,96];
array [1..5] of int: X_INTRODUCED_59_ = [93,35,63,85,46];
array [1..5] of int: X_INTRODUCED_61_ = [47,65,55,71,95];
array [1..11] of int: X_INTRODUCED_86_ = [1,-1,-1,-1,-1,-1,-1,-1,-1,-1,-1];
var 1..5: X_INTRODUCED_0_;
var 1..5: X_INTRODUCED_1_;
var 1..5: X_INTRODUCED_2_;
var 1..5: X_INTRODUCED_3_;
var 1..5: X_INTRODUCED_4_;
var 1..5: X_INTRODUCED_5_;
var 1..5: X_INTRODUCED_6_;
var 1..5: X_INTRODUCED_7_;
var 1..5: X_INTRODUCED_8_;
var 1..5: X_INTRODUCED_9_;
var bool: X_INTRODUCED_10_:: is_defined_var;
var bool: X_INTRODUCED_11_:: is_defined_var;
var bool: X_INTRODUCED_12_:: is_defined_var;
var bool: X_INTRODUCED_13_:: is_defined_var;
var bool: X_INTRODUCED_14_:: is_defined_var;
var 11..30: X_INTRODUCED_15_;
var 27..83: X_INTRODUCED_16_;
var 70..97: X_INTRODUCED_17_;
var 2..73: X_INTRODUCED_18_;
var 4..96: X_INTRODUCED_19_;
var 22..67: X_INTRODUCED_20_;
var 1..73: X_INTRODUCED_21_;
var 10..96: X_INTRODUCED_22_;
var 35..93: X_INTRODUCED_23_;
var 47..95: X_INTRODUCED_24_;
var 10..1120: total:: output_var:: is_defined_var;
var 0..1: X_INTRODUCED_28_ ::var_is_introduced :: is_defined_var;
var 0..1: X_INTRODUCED_31_ ::var_is_introduced :: is_defined_var;
var 0..1: X_INTRODUCED_33_ ::var_is_introduced :: is_defined_var;
var 0..1: X_INTRODUCED_35_ ::var_is_introduced :: is_defined_var;
var 0..1: X_INTRODUCED_37_ ::var_is_introduced :: is_defined_var;
var 0..1: X_INTRODUCED_63_ ::var_is_introduced :: is_defined_var;
var bool: X_INTRODUCED_64_ ::var_is_introduced :: is_defined_var;
var 0..1: X_INTRODUCED_65_ ::var_is_introduced :: is_defined_var;
var bool: X_INTRODUCED_66_ ::var_is_introduced :: is_defined_var;
var 0..1: X_INTRODUCED_67_ ::var_is_introduced :: is_defined_var;
var bool: X_INTRODUCED_68_ ::var_is_introduced :: is_defined_var;
var 0..1: X_INTRODUCED_69_ ::var_is_introduced :: is_defined_var;
var bool: X_INTRODUCED_70_ ::var_is_introduced :: is_defined_var;
var 0..1: X_INTRODUCED_71_ ::var_is_introduced :: is_defined_var;
var bool: X_INTRODUCED_72_ ::var_is_introduced :: is_defined_var;
var 0..1: X_INTRODUCED_73_ ::var_is_introduced :: is_defined_var;
var bool: X_INTRODUCED_74_ ::var_is_introduced :: is_defined_var;
var 0..1: X_INTRODUCED_75_ ::var_is_introduced :: is_defined_var;
var bool: X_INTRODUCED_76_ ::var_is_introduced :: is_defined_var;
var 0..1: X_INTRODUCED_77_ ::var_is_introduced :: is_defined_var;
var bool: X_INTRODUCED_78_ ::var_is_introduced :: is_defined_var;
var 0..1: X_INTRODUCED_79_ ::var_is_introduced :: is_defined_var;
var bool: X_INTRODUCED_80_ ::var_is_introduced :: is_defined_var;
var 0..1: X_INTRODUCED_81_ ::var_is_introduced :: is_defined_var;
var bool: X_INTRODUCED_82_ ::var_is_introduced :: is_defined_var;
var 0..1: X_INTRODUCED_83_ ::var_is_introduced :: is_defined_var;
var 0..4: X_INTRODUCED_87_ ::var_is_introduced :: is_defined_var;
var bool: X_INTRODUCED_88_ ::var_is_introduced :: is_defined_var;
var 0..1: X_INTRODUCED_89_ ::var_is_introduced :: is_defined_var;
var bool: X_INTRODUCED_90_ ::var_is_introduced :: is_defined_var;
var 0..1: X_INTRODUCED_91_ ::var_is_introduced :: is_defined_var;
var bool: X_INTRODUCED_92_ ::var_is_introduced :: is_defined_var;
var 0..1: X_INTRODUCED_93_ ::var_is_introduced :: is_defined_var;
var bool: X_INTRODUCED_94_ ::var_is_introduced :: is_defined_var;
var 0..1: X_INTRODUCED_95_ ::var_is_introduced :: is_defined_var;
var bool: X_INTRODUCED_96_ ::var_is_introduced :: is_defined_var;
var 0..1: X_INTRODUCED_97_ ::var_is_introduced :: is_defined_var;
var bool: X_INTRODUCED_98_ ::var_is_introduced :: is_defined_var;
var 0..1: X_INTRODUCED_99_ ::var_is_introduced :: is_defined_var;
var bool: X_INTRODUCED_100_ ::var_is_introduced :: is_defined_var;
var 0..1: X_INTRODUCED_101_ ::var_is_introduced :: is_defined_var;
var bool: X_INTRODUCED_102_ ::var_is_introduced :: is_defined_var;
var 0..1: X_INTRODUCED_103_ ::var_is_introduced :: is_defined_var;
var bool: X_INTRODUCED_104_ ::var_is_introduced :: is_defined_var;
var 0..1: X_INTRODUCED_105_ ::var_is_introduced :: is_defined_var;
var bool: X_INTRODUCED_106_ ::var_is_introduced :: is_defined_var;
var 0..1: X_INTRODUCED_107_ ::var_is_introduced :: is_defined_var;
var 0..2: X_INTRODUCED_110_ ::var_is_introduced :: is_defined_var;
var bool: X_INTRODUCED_111_ ::var_is_introduced :: is_defined_var;
var 0..1: X_INTRODUCED_112_ ::var_is_introduced :: is_defined_var;
var bool: X_INTRODUCED_113_ ::var_is_introduced :: is_defined_var;
var 0..1: X_INTRODUCED_114_ ::var_is_introduced :: is_defined_var;
var bool: X_INTRODUCED_115_ ::var_is_introduced :: is_defined_var;
var 0..1: X_INTRODUCED_116_ ::var_is_introduced :: is_defined_var;
var bool: X_INTRODUCED_117_ ::var_is_introduced :: is_defined_var;
var 0..1: X_INTRODUCED_118_ ::var_is_introduced :: is_defined_var;
var bool: X_INTRODUCED_119_ ::var_is_introduced :: is_defined_var;
var 0..1: X_INTRODUCED_120_ ::var_is_introduced :: is_defined_var;
var bool: X_INTRODUCED_121_ ::var_is_introduced :: is_defined_var;
var 0..1: X_INTRODUCED_122_ ::var_is_introduced :: is_defined_var;
var bool: X_INTRODUCED_123_ ::var_is_introduced :: is_defined_var;
var 0..1: X_INTRODUCED_124_ ::var_is_introduced :: is_defined_var;
var bool: X_INTRODUCED_125_ ::var_is_introduced :: is_defined_var;
var 0..1: X_INTRODUCED_126_ ::var_is_introduced :: is_defined_var;
var bool: X_INTRODUCED_127_ ::var_is_introduced :: is_defined_var;
var 0..1: X_INTRODUCED_128_ ::var_is_introduced :: is_defined_var;
var bool: X_INTRODUCED_129_ ::var_is_introduced :: is_defined_var;
var 0..1: X_INTRODUCED_130_ ::var_is_introduced :: is_defined_var;
var 0..1: X_INTRODUCED_133_ ::var_is_introduced :: is_defined_var;
var bool: X_INTRODUCED_134_ ::var_is_introduced :: is_defined_var;
var 0..1: X_INTRODUCED_135_ ::var_is_introduced :: is_defined_var;
var bool: X_INTRODUCED_136_ ::var_is_introduced :: is_defined_var;
var 0..1: X_INTRODUCED_137_ ::var_is_introduced :: is_defined_var;
var bool: X_INTRODUCED_138_ ::var_is_introduced :: is_defined_var;
var 0..1: X_INTRODUCED_139_ ::var_is_introduced :: is_defined_var;
var bool: X_INTRODUCED_140_ ::var_is_introduced :: is_defined_var;
var 0..1: X_INTRODUCED_141_ ::var_is_introduced :: is_defined_var;
var bool: X_INTRODUCED_142_ ::var_is_introduced :: is_defined_var;
var 0..1: X_INTRODUCED_143_ ::var_is_introduced :: is_defined_var;
var bool: X_INTRODUCED_144_ ::var_is_introduced :: is_defined_var;
var 0..1: X_INTRODUCED_145_ ::var_is_introduced :: is_defined_var;
var bool: X_INTRODUCED_146_ ::var_is_introduced :: is_defined_var;
var 0..1: X_INTRODUCED_147_ ::var_is_introduced :: is_defined_var;
var bool: X_INTRODUCED_148_ ::var_is_introduced :: is_defined_var;
var 0..1: X_INTRODUCED_149_ ::var_is_introduced :: is_defined_var;
var bool: X_INTRODUCED_150_ ::var_is_introduced :: is_defined_var;
var 0..1: X_INTRODUCED_151_ ::var_is_introduced :: is_defined_var;
var bool: X_INTRODUCED_152_ ::var_is_introduced :: is_defined_var;
var 0..1: X_INTRODUCED_153_ ::var_is_introduced :: is_defined_var;
var 0..3: X_INTRODUCED_156_ ::var_is_introduced :: is_defined_var;
var bool: X_INTRODUCED_157_ ::var_is_introduced :: is_defined_var;
var 0..1: X_INTRODUCED_158_ ::var_is_introduced :: is_defined_var;
var bool: X_INTRODUCED_159_ ::var_is_introduced :: is_defined_var;
var 0..1: X_INTRODUCED_160_ ::var_is_introduced :: is_defined_var;
var bool: X_INTRODUCED_161_ ::var_is_introduced :: is_defined_var;
var 0..1: X_INTRODUCED_162_ ::var_is_introduced :: is_defined_var;
var bool: X_INTRODUCED_163_ ::var_is_introduced :: is_defined_var;
var 0..1: X_INTRODUCED_164_ ::var_is_introduced :: is_defined_var;
var bool: X_INTRODUCED_165_ ::var_is_introduced :: is_defined_var;
var 0..1: X_INTRODUCED_166_ ::var_is_introduced :: is_defined_var;
var bool: X_INTRODUCED_167_ ::var_is_introduced :: is_defined_var;
var 0..1: X_INTRODUCED_168_ ::var_is_introduced :: is_defined_var;
var bool: X_INTRODUCED_169_ ::var_is_introduced :: is_defined_var;
var 0..1: X_INTRODUCED_170_ ::var_is_introduced :: is_defined_var;
var bool: X_INTRODUCED_171_ ::var_is_introduced :: is_defined_var;
var 0..1: X_INTRODUCED_172_ ::var_is_introduced :: is_defined_var;
var bool: X_INTRODUCED_173_ ::var_is_introduced :: is_defined_var;
var 0..1: X_INTRODUCED_174_ ::var_is_introduced :: is_defined_var;
var bool: X_INTRODUCED_175_ ::var_is_introduced :: is_defined_var;
var 0..1: X_INTRODUCED_176_ ::var_is_introduced :: is_defined_var;
array [1..10] of var int: supplier:: output_array([1..10]) = [X_INTRODUCED_0_,X_INTRODUCED_1_,X_INTRODUCED_2_,X_INTRODUCED_3_,X_INTRODUCED_4_,X_INTRODUCED_5_,X_INTRODUCED_6_,X_INTRODUCED_7_,X_INTRODUCED_8_,X_INTRODUCED_9_];
array [1..5] of var bool: open:: output_array([1..5]) = [X_INTRODUCED_10_,X_INTRODUCED_11_,X_INTRODUCED_12_,X_INTRODUCED_13_,X_INTRODUCED_14_];
array [1..10] of var int: cost:: output_array([1..10]) = [X_INTRODUCED_15_,X_INTRODUCED_16_,X_INTRODUCED_17_,X_INTRODUCED_18_,X_INTRODUCED_19_,X_INTRODUCED_20_,X_INTRODUCED_21_,X_INTRODUCED_22_,X_INTRODUCED_23_,X_INTRODUCED_24_];
array [1..16] of var int: X_INTRODUCED_41_ ::var_is_introduced  = [X_INTRODUCED_28_,X_INTRODUCED_31_,X_INTRODUCED_33_,X_INTRODUCED_35_,X_INTRODUCED_37_,X_INTRODUCED_15_,X_INTRODUCED_16_,X_INTRODUCED_17_,X_INTRODUCED_18_,X_INTRODUCED_19_,X_INTRODUCED_20_,X_INTRODUCED_21_,X_INTRODUCED_22_,X_INTRODUCED_23_,X_INTRODUCED_24_,total];
array [1..11] of var int: X_INTRODUCED_85_ ::var_is_introduced  = [X_INTRODUCED_63_,X_INTRODUCED_65_,X_INTRODUCED_67_,X_INTRODUCED_69_,X_INTRODUCED_71_,X_INTRODUCED_73_,X_INTRODUCED_75_,X_INTRODUCED_77_,X_INTRODUCED_79_,X_INTRODUCED_81_,X_INTRODUCED_83_];
array [1..11] of var int: X_INTRODUCED_109_ ::var_is_introduced  = [X_INTRODUCED_87_,X_INTRODUCED_89_,X_INTRODUCED_91_,X_INTRODUCED_93_,X_INTRODUCED_95_,X_INTRODUCED_97_,X_INTRODUCED_99_,X_INTRODUCED_101_,X_INTRODUCED_103_,X_INTRODUCED_105_,X_INTRODUCED_107_];
array [1..11] of var int: X_INTRODUCED_132_ ::var_is_introduced  = [X_INTRODUCED_110_,X_INTRODUCED_112_,X_INTRODUCED_114_,X_INTRODUCED_116_,X_INTRODUCED_118_,X_INTRODUCED_120_,X_INTRODUCED_122_,X_INTRODUCED_124_,X_INTRODUCED_126_,X_INTRODUCED_128_,X_INTRODUCED_130_];
array [1..11] of var int: X_INTRODUCED_155_ ::var_is_introduced  = [X_INTRODUCED_133_,X_INTRODUCED_135_,X_INTRODUCED_137_,X_INTRODUCED_139_,X_INTRODUCED_141_,X_INTRODUCED_143_,X_INTRODUCED_145_,X_INTRODUCED_147_,X_INTRODUCED_149_,X_INTRODUCED_151_,X_INTRODUCED_153_];
array [1..11] of var int: X_INTRODUCED_178_ ::var_is_introduced  = [X_INTRODUCED_156_,X_INTRODUCED_158_,X_INTRODUCED_160_,X_INTRODUCED_162_,X_INTRODUCED_164_,X_INTRODUCED_166_,X_INTRODUCED_168_,X_INTRODUCED_170_,X_INTRODUCED_172_,X_INTRODUCED_174_,X_INTRODUCED_176_];
array [1..25] of var int: X_INTRODUCED_185_ ::var_is_introduced  = [X_INTRODUCED_0_,X_INTRODUCED_1_,X_INTRODUCED_2_,X_INTRODUCED_3_,X_INTRODUCED_4_,X_INTRODUCED_5_,X_INTRODUCED_6_,X_INTRODUCED_7_,X_INTRODUCED_8_,X_INTRODUCED_9_,X_INTRODUCED_15_,X_INTRODUCED_16_,X_INTRODUCED_17_,X_INTRODUCED_18_,X_INTRODUCED_19_,X_INTRODUCED_20_,X_INTRODUCED_21_,X_INTRODUCED_22_,X_INTRODUCED_23_,X_INTRODUCED_24_,X_INTRODUCED_28_,X_INTRODUCED_31_,X_INTRODUCED_33_,X_INTRODUCED_35_,X_INTRODUCED_37_];
constraint int_lin_eq(X_INTRODUCED_42_,X_INTRODUCED_41_,0):: defines_var(total);
constraint array_int_element(X_INTRODUCED_0_,X_INTRODUCED_43_,X_INTRODUCED_15_):: defines_var(X_INTRODUCED_15_);
constraint array_int_element(X_INTRODUCED_1_,X_INTRODUCED_45_,X_INTRODUCED_16_):: defines_var(X_INTRODUCED_16_);
constraint array_int_element(X_INTRODUCED_2_,X_INTRODUCED_47_,X_INTRODUCED_17_):: defines_var(X_INTRODUCED_17_);
constraint array_int_element(X_INTRODUCED_3_,X_INTRODUCED_49_,X_INTRODUCED_18_):: defines_var(X_INTRODUCED_18_);
constraint array_int_element(X_INTRODUCED_4_,X_INTRODUCED_51_,X_INTRODUCED_19_):: defines_var(X_INTRODUCED_19_);
constraint array_int_element(X_INTRODUCED_5_,X_INTRODUCED_53_,X_INTRODUCED_20_):: defines_var(X_INTRODUCED_20_);
constraint array_int_element(X_INTRODUCED_6_,X_INTRODUCED_55_,X_INTRODUCED_21_):: defines_var(X_INTRODUCED_21_);
constraint array_int_element(X_INTRODUCED_7_,X_INTRODUCED_57_,X_INTRODUCED_22_):: defines_var(X_INTRODUCED_22_);
constraint array_int_element(X_INTRODUCED_8_,X_INTRODUCED_59_,X_INTRODUCED_23_):: defines_var(X_INTRODUCED_23_);
constraint array_int_element(X_INTRODUCED_9_,X_INTRODUCED_61_,X_INTRODUCED_24_):: defines_var(X_INTRODUCED_24_);
constraint int_lin_eq(X_INTRODUCED_86_,X_INTRODUCED_85_,0):: defines_var(X_INTRODUCED_63_);
constraint int_lin_eq(X_INTRODUCED_86_,X_INTRODUCED_109_,0):: defines_var(X_INTRODUCED_87_);
constraint int_lin_eq(X_INTRODUCED_86_,X_INTRODUCED_132_,0):: defines_var(X_INTRODUCED_110_);
constraint int_lin_eq(X_INTRODUCED_86_,X_INTRODUCED_155_,0):: defines_var(X_INTRODUCED_133_);
constraint int_lin_eq(X_INTRODUCED_86_,X_INTRODUCED_178_,0):: defines_var(X_INTRODUCED_156_);
constraint array_bool_or([X_INTRODUCED_64_,X_INTRODUCED_66_,X_INTRODUCED_68_,X_INTRODUCED_70_,X_INTRODUCED_72_,X_INTRODUCED_74_,X_INTRODUCED_76_,X_INTRODUCED_78_,X_INTRODUCED_80_,X_INTRODUCED_82_],X_INTRODUCED_10_):: defines_var(X_INTRODUCED_10_);
constraint array_bool_or([X_INTRODUCED_88_,X_INTRODUCED_90_,X_INTRODUCED_92_,X_INTRODUCED_94_,X_INTRODUCED_96_,X_INTRODUCED_98_,X_INTRODUCED_100_,X_INTRODUCED_102_,X_INTRODUCED_104_,X_INTRODUCED_106_],X_INTRODUCED_11_):: defines_var(X_INTRODUCED_11_);
constraint array_bool_or([X_INTRODUCED_111_,X_INTRODUCED_113_,X_INTRODUCED_115_,X_INTRODUCED_117_,X_INTRODUCED_119_,X_INTRODUCED_121_,X_INTRODUCED_123_,X_INTRODUCED_125_,X_INTRODUCED_127_,X_INTRODUCED_129_],X_INTRODUCED_12_):: defines_var(X_INTRODUCED_12_);
constraint array_bool_or([X_INTRODUCED_134_,X_INTRODUCED_136_,X_INTRODUCED_138_,X_INTRODUCED_140_,X_INTRODUCED_142_,X_INTRODUCED_144_,X_INTRODUCED_146_,X_INTRODUCED_148_,X_INTRODUCED_150_,X_INTRODUCED_152_],X_INTRODUCED_13_):: defines_var(X_INTRODUCED_13_);
constraint array_bool_or([X_INTRODUCED_157_,X_INTRODUCED_159_,X_INTRODUCED_161_,X_INTRODUCED_163_,X_INTRODUCED_165_,X_INTRODUCED_167_,X_INTRODUCED_169_,X_INTRODUCED_171_,X_INTRODUCED_173_,X_INTRODUCED_175_],X_INTRODUCED_14_):: defines_var(X_INTRODUCED_14_);
constraint bool2int(X_INTRODUCED_10_,X_INTRODUCED_28_):: defines_var(X_INTRODUCED_28_);
constraint bool2int(X_INTRODUCED_11_,X_INTRODUCED_31_):: defines_var(X_INTRODUCED_31_);
constraint bool2int(X_INTRODUCED_12_,X_INTRODUCED_33_):: defines_var(X_INTRODUCED_33_);
constraint bool2int(X_INTRODUCED_13_,X_INTRODUCED_35_):: defines_var(X_INTRODUCED_35_);
constraint bool2int(X_INTRODUCED_14_,X_INTRODUCED_37_):: defines_var(X_INTRODUCED_37_);
constraint int_eq_reif(X_INTRODUCED_0_,1,X_INTRODUCED_64_):: defines_var(X_INTRODUCED_64_);
constraint bool2int(X_INTRODUCED_64_,X_INTRODUCED_65_):: defines_var(X_INTRODUCED_65_);
constraint int_eq_reif(X_INTRODUCED_1_,1,X_INTRODUCED_66_):: defines_var(X_INTRODUCED_66_);
constraint bool2int(X_INTRODUCED_66_,X_INTRODUCED_67_):: defines_var(X_INTRODUCED_67_);
constraint int_eq_reif(X_INTRODUCED_2_,1,X_INTRODUCED_68_):: defines_var(X_INTRODUCED_68_);
constraint bool2int(X_INTRODUCED_68_,X_INTRODUCED_69_):: defines_var(X_INTRODUCED_69_);
constraint int_eq_reif(X_INTRODUCED_3_,1,X_INTRODUCED_70_):: defines_var(X_INTRODUCED_70_);
constraint bool2int(X_INTRODUCED_70_,X_INTRODUCED_71_):: defines_var(X_INTRODUCED_71_);
constraint int_eq_reif(X_INTRODUCED_4_,1,X_INTRODUCED_72_):: defines_var(X_INTRODUCED_72_);
constraint bool2int(X_INTRODUCED_72_,X_INTRODUCED_73_):: defines_var(X_INTRODUCED_73_);
constraint int_eq_reif(X_INTRODUCED_5_,1,X_INTRODUCED_74_):: defines_var(X_INTRODUCED_74_);
constraint bool2int(X_INTRODUCED_74_,X_INTRODUCED_75_):: defines_var(X_INTRODUCED_75_);
constraint int_eq_reif(X_INTRODUCED_6_,1,X_INTRODUCED_76_):: defines_var(X_INTRODUCED_76_);
constraint bool2int(X_INTRODUCED_76_,X_INTRODUCED_77_):: defines_var(X_INTRODUCED_77_);
constraint int_eq_reif(X_INTRODUCED_7_,1,X_INTRODUCED_78_):: defines_var(X_INTRODUCED_78_);
constraint bool2int(X_INTRODUCED_78_,X_INTRODUCED_79_):: defines_var(X_INTRODUCED_79_);
constraint int_eq_reif(X_INTRODUCED_8_,1,X_INTRODUCED_80_):: defines_var(X_INTRODUCED_80_);
constraint bool2int(X_INTRODUCED_80_,X_INTRODUCED_81_):: defines_var(X_INTRODUCED_81_);
constraint int_eq_reif(X_INTRODUCED_9_,1,X_INTRODUCED_82_):: defines_var(X_INTRODUCED_82_);
constraint bool2int(X_INTRODUCED_82_,X_INTRODUCED_83_):: defines_var(X_INTRODUCED_83_);
constraint int_eq_reif(X_INTRODUCED_0_,2,X_INTRODUCED_88_):: defines_var(X_INTRODUCED_88_);
constraint bool2int(X_INTRODUCED_88_,X_INTRODUCED_89_):: defines_var(X_INTRODUCED_89_);
constraint int_eq_reif(X_INTRODUCED_1_,2,X_INTRODUCED_90_):: defines_var(X_INTRODUCED_90_);
constraint bool2int(X_INTRODUCED_90_,X_INTRODUCED_91_):: defines_var(X_INTRODUCED_91_);
constraint int_eq_reif(X_INTRODUCED_2_,2,X_INTRODUCED_92_):: defines_var(X_INTRODUCED_92_);
constraint bool2int(X_INTRODUCED_92_,X_INTRODUCED_93_):: defines_var(X_INTRODUCED_93_);
constraint int_eq_reif(X_INTRODUCED_3_,2,X_INTRODUCED_94_):: defines_var(X_INTRODUCED_94_);
constraint bool2int(X_INTRODUCED_94_,X_INTRODUCED_95_):: defines_var(X_INTRODUCED_95_);
constraint int_eq_reif(X_INTRODUCED_4_,2,X_INTRODUCED_96_):: defines_var(X_INTRODUCED_96_);
constraint bool2int(X_INTRODUCED_96_,X_INTRODUCED_97_):: defines_var(X_INTRODUCED_97_);
constraint int_eq_reif(X_INTRODUCED_5_,2,X_INTRODUCED_98_):: defines_var(X_INTRODUCED_98_);
constraint bool2int(X_INTRODUCED_98_,X_INTRODUCED_99_):: defines_var(X_INTRODUCED_99_);
constraint int_eq_reif(X_INTRODUCED_6_,2,X_INTRODUCED_100_):: defines_var(X_INTRODUCED_100_);
constraint bool2int(X_INTRODUCED_100_,X_INTRODUCED_101_):: defines_var(X_INTRODUCED_101_);
constraint int_eq_reif(X_INTRODUCED_7_,2,X_INTRODUCED_102_):: defines_var(X_INTRODUCED_102_);
constraint bool2int(X_INTRODUCED_102_,X_INTRODUCED_103_):: defines_var(X_INTRODUCED_103_);
constraint int_eq_reif(X_INTRODUCED_8_,2,X_INTRODUCED_104_):: defines_var(X_INTRODUCED_104_);
constraint bool2int(X_INTRODUCED_104_,X_INTRODUCED_105_):: defines_var(X_INTRODUCED_105_);
constraint int_eq_reif(X_INTRODUCED_9_,2,X_INTRODUCED_106_):: defines_var(X_INTRODUCED_106_);
constraint bool2int(X_INTRODUCED_106_,X_INTRODUCED_107_):: defines_var(X_INTRODUCED_107_);
constraint int_eq_reif(X_INTRODUCED_0_,3,X_INTRODUCED_111_):: defines_var(X_INTRODUCED_111_);
constraint bool2int(X_INTRODUCED_111_,X_INTRODUCED_112_):: defines_var(X_INTRODUCED_112_);
constraint int_eq_reif(X_INTRODUCED_1_,3,X_INTRODUCED_113_):: defines_var(X_INTRODUCED_113_);
constraint bool2int(X_INTRODUCED_113_,X_INTRODUCED_114_):: defines_var(X_INTRODUCED_114_);
constraint int_eq_reif(X_INTRODUCED_2_,3,X_INTRODUCED_115_):: defines_var(X_INTRODUCED_115_);
constraint bool2int(X_INTRODUCED_115_,X_INTRODUCED_116_):: defines_var(X_INTRODUCED_116_);
constraint int_eq_reif(X_INTRODUCED_3_,3,X_INTRODUCED_117_):: defines_var(X_INTRODUCED_117_);
constraint bool2int(X_INTRODUCED_117_,X_INTRODUCED_118_):: defines_var(X_INTRODUCED_118_);
constraint int_eq_reif(X_INTRODUCED_4_,3,X_INTRODUCED_119_):: defines_var(X_INTRODUCED_119_);
constraint bool2int(X_INTRODUCED_119_,X_INTRODUCED_120_):: defines_var(X_INTRODUCED_120_);
constraint int_eq_reif(X_INTRODUCED_5_,3,X_INTRODUCED_121_):: defines_var(X_INTRODUCED_121_);
constraint bool2int(X_INTRODUCED_121_,X_INTRODUCED_122_):: defines_var(X_INTRODUCED_122_);
constraint int_eq_reif(X_INTRODUCED_6_,3,X_INTRODUCED_123_):: defines_var(X_INTRODUCED_123_);
constraint bool2int(X_INTRODUCED_123_,X_INTRODUCED_124_):: defines_var(X_INTRODUCED_124_);
constraint int_eq_reif(X_INTRODUCED_7_,3,X_INTRODUCED_125_):: defines_var(X_INTRODUCED_125_);
constraint bool2int(X_INTRODUCED_125_,X_INTRODUCED_126_):: defines_var(X_INTRODUCED_126_);
constraint int_eq_reif(X_INTRODUCED_8_,3,X_INTRODUCED_127_):: defines_var(X_INTRODUCED_127_);
constraint bool2int(X_INTRODUCED_127_,X_INTRODUCED_128_):: defines_var(X_INTRODUCED_128_);
constraint int_eq_reif(X_INTRODUCED_9_,3,X_INTRODUCED_129_):: defines_var(X_INTRODUCED_129_);
constraint bool2int(X_INTRODUCED_129_,X_INTRODUCED_130_):: defines_var(X_INTRODUCED_130_);
constraint int_eq_reif(X_INTRODUCED_0_,4,X_INTRODUCED_134_):: defines_var(X_INTRODUCED_134_);
constraint bool2int(X_INTRODUCED_134_,X_INTRODUCED_135_):: defines_var(X_INTRODUCED_135_);
constraint int_eq_reif(X_INTRODUCED_1_,4,X_INTRODUCED_136_):: defines_var(X_INTRODUCED_136_);
constraint bool2int(X_INTRODUCED_136_,X_INTRODUCED_137_):: defines_var(X_INTRODUCED_137_);
constraint int_eq_reif(X_INTRODUCED_2_,4,X_INTRODUCED_138_):: defines_var(X_INTRODUCED_138_);
constraint bool2int(X_INTRODUCED_138_,X_INTRODUCED_139_):: defines_var(X_INTRODUCED_139_);
constraint int_eq_reif(X_INTRODUCED_3_,4,X_INTRODUCED_140_):: defines_var(X_INTRODUCED_140_);
constraint bool2int(X_INTRODUCED_140_,X_INTRODUCED_141_):: defines_var(X_INTRODUCED_141_);
constraint int_eq_reif(X_INTRODUCED_4_,4,X_INTRODUCED_142_):: defines_var(X_INTRODUCED_142_);
constraint bool2int(X_INTRODUCED_142_,X_INTRODUCED_143_):: defines_var(X_INTRODUCED_143_);
constraint int_eq_reif(X_INTRODUCED_5_,4,X_INTRODUCED_144_):: defines_var(X_INTRODUCED_144_);
constraint bool2int(X_INTRODUCED_144_,X_INTRODUCED_145_):: defines_var(X_INTRODUCED_145_);
constraint int_eq_reif(X_INTRODUCED_6_,4,X_INTRODUCED_146_):: defines_var(X_INTRODUCED_146_);
constraint bool2int(X_INTRODUCED_146_,X_INTRODUCED_147_):: defines_var(X_INTRODUCED_147_);
constraint int_eq_reif(X_INTRODUCED_7_,4,X_INTRODUCED_148_):: defines_var(X_INTRODUCED_148_);
constraint bool2int(X_INTRODUCED_148_,X_INTRODUCED_149_):: defines_var(X_INTRODUCED_149_);
constraint int_eq_reif(X_INTRODUCED_8_,4,X_INTRODUCED_150_):: defines_var(X_INTRODUCED_150_);
constraint bool2int(X_INTRODUCED_150_,X_INTRODUCED_151_):: defines_var(X_INTRODUCED_151_);
constraint int_eq_reif(X_INTRODUCED_9_,4,X_INTRODUCED_152_):: defines_var(X_INTRODUCED_152_);
constraint bool2int(X_INTRODUCED_152_,X_INTRODUCED_153_):: defines_var(X_INTRODUCED_153_);
constraint int_eq_reif(X_INTRODUCED_0_,5,X_INTRODUCED_157_):: defines_var(X_INTRODUCED_157_);
constraint bool2int(X_INTRODUCED_157_,X_INTRODUCED_158_):: defines_var(X_INTRODUCED_158_);
constraint int_eq_reif(X_INTRODUCED_1_,5,X_INTRODUCED_159_):: defines_var(X_INTRODUCED_159_);
constraint bool2int(X_INTRODUCED_159_,X_INTRODUCED_160_):: defines_var(X_INTRODUCED_160_);
constraint int_eq_reif(X_INTRODUCED_2_,5,X_INTRODUCED_161_):: defines_var(X_INTRODUCED_161_);
constraint bool2int(X_INTRODUCED_161_,X_INTRODUCED_162_):: defines_var(X_INTRODUCED_162_);
constraint int_eq_reif(X_INTRODUCED_3_,5,X_INTRODUCED_163_):: defines_var(X_INTRODUCED_163_);
constraint bool2int(X_INTRODUCED_163_,X_INTRODUCED_164_):: defines_var(X_INTRODUCED_164_);
constraint int_eq_reif(X_INTRODUCED_4_,5,X_INTRODUCED_165_):: defines_var(X_INTRODUCED_165_);
constraint bool2int(X_INTRODUCED_165_,X_INTRODUCED_166_):: defines_var(X_INTRODUCED_166_);
constraint int_eq_reif(X_INTRODUCED_5_,5,X_INTRODUCED_167_):: defines_var(X_INTRODUCED_167_);
constraint bool2int(X_INTRODUCED_167_,X_INTRODUCED_168_):: defines_var(X_INTRODUCED_168_);
constraint int_eq_reif(X_INTRODUCED_6_,5,X_INTRODUCED_169_):: defines_var(X_INTRODUCED_169_);
constraint bool2int(X_INTRODUCED_169_,X_INTRODUCED_170_):: defines_var(X_INTRODUCED_170_);
constraint int_eq_reif(X_INTRODUCED_7_,5,X_INTRODUCED_171_):: defines_var(X_INTRODUCED_171_);
constraint bool2int(X_INTRODUCED_171_,X_INTRODUCED_172_):: defines_var(X_INTRODUCED_172_);
constraint int_eq_reif(X_INTRODUCED_8_,5,X_INTRODUCED_173_):: defines_var(X_INTRODUCED_173_);
constraint bool2int(X_INTRODUCED_173_,X_INTRODUCED_174_):: defines_var(X_INTRODUCED_174_);
constraint int_eq_reif(X_INTRODUCED_9_,5,X_INTRODUCED_175_):: defines_var(X_INTRODUCED_175_);
constraint bool2int(X_INTRODUCED_175_,X_INTRODUCED_176_):: defines_var(X_INTRODUCED_176_);
solve :: int_search(X_INTRODUCED_185_,first_fail,indomain_split,complete) minimize total;
